
  22    4
  10   10   10   10

   0   0   0   0   0   8 2 3 4 6 7 8 12 21 
  10  10  10  10  10   5 20 19 15 11 10 
   9  10  10  10  10   5 19 17 16 15 10 
   7  10  10  10  10   2 9 5 
   9  10  10  10  10   4 19 15 14 13 
   1  10  10  10  10   2 16 10 
   6  10  10  10  10   3 19 16 13 
  10  10  10  10  10   3 19 15 14 
   4  10  10  10  10   3 20 19 18 
   5  10  10  10  10   2 14 13 
   7  10  10  10  10   1 13 
   9  10  10  10  10   1 13 
   1  10  10  10  10   1 18 
   6  10  10  10  10   1 18 
   7  10  10  10  10   1 18 
   4  10  10  10  10   1 18 
   8  10  10  10  10   1 18 
   1  10  10  10  10   1 22
   1  10  10  10  10   1 22
   2  10  10  10  10   1 22
   2  10  10  10  10   1 22
   0   0   0   0   0   0 
